z
Set parameter SolFiles to value "y26.int"
Set parameter LogFile to value "gurobi.log"
Using license file /home/knight/gurobi.lic

Gurobi Optimizer version 11.0.3 build v11.0.3rc0 (linux64 - "Ubuntu 22.04.4 LTS")
Copyright (c) 2024, Gurobi Optimization, LLC

Read LP format model from file y26.ilp
Reading time = 0.03 seconds
: 17607 rows, 28582 columns, 244700 nonzeros

CPU model: 13th Gen Intel(R) Core(TM) i9-13950HX, instruction set [SSE2|AVX|AVX2]
Thread count: 32 physical cores, 32 logical processors, using up to 32 threads

Optimize a model with 17607 rows, 28582 columns and 244700 nonzeros
Model fingerprint: 0xb80f950c
Variable types: 14196 continuous, 14386 integer (14386 binary)
Coefficient statistics:
  Matrix range     [1e+00, 3e+01]
  Objective range  [1e+00, 1e+00]
  Bounds range     [1e+00, 1e+00]
  RHS range        [1e+00, 3e+01]
Presolve removed 17607 rows and 28582 columns
Presolve time: 0.02s
Presolve: All rows and columns removed

Explored 0 nodes (0 simplex iterations) in 0.03 seconds (0.07 work units)
Thread count was 1 (of 32 available processors)

Solution count 1: 26 

Optimal solution found (tolerance 1.00e-04)
Best objective 2.600000000000e+01, best bound 2.600000000000e+01, gap 0.0000%

Wrote result file 'y26.sol'

wire.s.0.0 1
wire.s.1.1 1
wire.s.2.2 1
wire.s.3.3 1
wire.s.4.4 1
wire.s.5.5 1
wire.s.6.6 1
wire.s.7.7 1
wire.s.8.8 1
wire.s.9.9 1
wire.s.10.10 1
wire.s.11.11 1
wire.s.12.12 1
wire.s.13.13 1
wire.s.14.14 1
wire.s.15.15 1
wire.s.16.16 1
wire.s.17.17 1
wire.s.18.18 1
wire.s.19.19 1
wire.s.20.20 1
wire.s.21.21 1
wire.s.22.22 1
wire.s.23.23 1
wire.s.24.24 1
wire.s.25.25 1
init.0.2.2.22 1
init.1.0.0.20 1
init.2.1.21.0 1
reflector.0 1
plaintext.0.0 1
plaintext.0.1 1
wire.u.0.24 1
wire.u.1.17 1
wire.u.2.20 1
wire.u.3.7 1
wire.u.4.16 1
wire.u.5.18 1
wire.u.6.11 1
wire.u.7.3 1
wire.u.8.15 1
wire.u.9.23 1
wire.u.10.13 1
wire.u.11.6 1
wire.u.12.14 1
wire.u.13.10 1
wire.u.14.12 1
wire.u.15.8 1
wire.u.16.4 1
wire.u.17.1 1
wire.u.18.5 1
wire.u.19.25 1
wire.u.20.2 1
wire.u.21.22 1
wire.u.22.21 1
wire.u.23.9 1
wire.u.24.0 1
wire.u.25.19 1
notch.0.4 1
notch.1.0 1
notch.2.14 1
notches.0.14.0 1
wire.0.0.11.0 1
wire.0.1.14.0 1
wire.0.2.17.0 1
wire.0.3.21.0 1
wire.0.4.5.0 1
wire.0.5.1.0 1
wire.0.6.16.0 1
wire.0.7.13.0 1
wire.0.8.6.0 1
wire.0.9.22.0 1
wire.0.10.10.0 1
wire.0.11.0.0 1
wire.0.12.19.0 1
wire.0.13.7.0 1
wire.0.14.9.0 1
wire.0.15.18.0 1
wire.0.16.25.0 1
wire.0.17.15.0 1
wire.0.18.8.0 1
wire.0.19.24.0 1
wire.0.20.20.0 1
wire.0.21.3.0 1
wire.0.22.23.0 1
wire.0.23.4.0 1
wire.0.24.12.0 1
wire.0.25.2.0 1
wire.1.0.17.0 1
wire.1.1.25.0 1
wire.1.2.23.0 1
wire.1.3.21.0 1
wire.1.4.19.0 1
wire.1.5.6.0 1
wire.1.6.8.0 1
wire.1.7.10.0 1
wire.1.8.12.0 1
wire.1.9.14.0 1
wire.1.10.16.0 1
wire.1.11.7.0 1
wire.1.12.20.0 1
wire.1.13.22.0 1
wire.1.14.24.0 1
wire.1.15.2.0 1
wire.1.16.0.0 1
wire.1.17.4.0 1
wire.1.18.18.0 1
wire.1.19.3.0 1
wire.1.20.9.0 1
wire.1.21.13.0 1
wire.1.22.1.0 1
wire.1.23.11.0 1
wire.1.24.5.0 1
wire.1.25.15.0 1
wire.2.0.23.0 1
wire.2.1.10.0 1
wire.2.2.15.0 1
wire.2.3.19.0 1
wire.2.4.7.0 1
wire.2.5.13.0 1
wire.2.6.8.0 1
wire.2.7.16.0 1
wire.2.8.18.0 1
wire.2.9.1.0 1
wire.2.10.17.0 1
wire.2.11.14.0 1
wire.2.12.12.0 1
wire.2.13.9.0 1
wire.2.14.20.0 1
wire.2.15.2.0 1
wire.2.16.21.0 1
wire.2.17.11.0 1
wire.2.18.22.0 1
wire.2.19.3.0 1
wire.2.20.24.0 1
wire.2.21.4.0 1
wire.2.22.6.0 1
wire.2.23.25.0 1
wire.2.24.5.0 1
wire.2.25.0.0 1
notches.0.13.1 1
notches.25.13.1 1
notches.0.12.2 1
rotate.2.0 1
rotate.2.1 1
rotate.1.0 1
rotate.1.1 1
rotate.0.0 1
rotate.0.1 1
wire.0.0.11.0.rotate 1
wire.0.1.14.0.rotate 1
wire.0.2.17.0.rotate 1
wire.0.3.21.0.rotate 1
wire.0.4.5.0.rotate 1
wire.0.5.1.0.rotate 1
wire.0.6.16.0.rotate 1
wire.0.7.13.0.rotate 1
wire.0.8.6.0.rotate 1
wire.0.9.22.0.rotate 1
wire.0.10.10.0.rotate 1
wire.0.11.0.0.rotate 1
wire.0.12.19.0.rotate 1
wire.0.13.7.0.rotate 1
wire.0.14.9.0.rotate 1
wire.0.15.18.0.rotate 1
wire.0.16.25.0.rotate 1
wire.0.17.15.0.rotate 1
wire.0.18.8.0.rotate 1
wire.0.19.24.0.rotate 1
wire.0.20.20.0.rotate 1
wire.0.21.3.0.rotate 1
wire.0.22.23.0.rotate 1
wire.0.23.4.0.rotate 1
wire.0.24.12.0.rotate 1
wire.0.25.2.0.rotate 1
wire.1.0.17.0.rotate 1
wire.1.1.25.0.rotate 1
wire.1.2.23.0.rotate 1
wire.1.3.21.0.rotate 1
wire.1.4.19.0.rotate 1
wire.1.5.6.0.rotate 1
wire.1.6.8.0.rotate 1
wire.1.7.10.0.rotate 1
wire.1.8.12.0.rotate 1
wire.1.9.14.0.rotate 1
wire.1.10.16.0.rotate 1
wire.1.11.7.0.rotate 1
wire.1.12.20.0.rotate 1
wire.1.13.22.0.rotate 1
wire.1.14.24.0.rotate 1
wire.1.15.2.0.rotate 1
wire.1.16.0.0.rotate 1
wire.1.17.4.0.rotate 1
wire.1.18.18.0.rotate 1
wire.1.19.3.0.rotate 1
wire.1.20.9.0.rotate 1
wire.1.21.13.0.rotate 1
wire.1.22.1.0.rotate 1
wire.1.23.11.0.rotate 1
wire.1.24.5.0.rotate 1
wire.1.25.15.0.rotate 1
wire.2.0.23.0.rotate 1
wire.2.1.10.0.rotate 1
wire.2.2.15.0.rotate 1
wire.2.3.19.0.rotate 1
wire.2.4.7.0.rotate 1
wire.2.5.13.0.rotate 1
wire.2.6.8.0.rotate 1
wire.2.7.16.0.rotate 1
wire.2.8.18.0.rotate 1
wire.2.9.1.0.rotate 1
wire.2.10.17.0.rotate 1
wire.2.11.14.0.rotate 1
wire.2.12.12.0.rotate 1
wire.2.13.9.0.rotate 1
wire.2.14.20.0.rotate 1
wire.2.15.2.0.rotate 1
wire.2.16.21.0.rotate 1
wire.2.17.11.0.rotate 1
wire.2.18.22.0.rotate 1
wire.2.19.3.0.rotate 1
wire.2.20.24.0.rotate 1
wire.2.21.4.0.rotate 1
wire.2.22.6.0.rotate 1
wire.2.23.25.0.rotate 1
wire.2.24.5.0.rotate 1
wire.2.25.0.0.rotate 1
wire.0.0.13.1.rotate 1
wire.0.1.16.1.rotate 1
wire.0.2.20.1.rotate 1
wire.0.3.4.1.rotate 1
wire.0.4.0.1.rotate 1
wire.0.5.15.1.rotate 1
wire.0.6.12.1.rotate 1
wire.0.7.5.1.rotate 1
wire.0.8.21.1.rotate 1
wire.0.9.9.1.rotate 1
wire.0.10.25.1.rotate 1
wire.0.11.18.1.rotate 1
wire.0.12.6.1.rotate 1
wire.0.13.8.1.rotate 1
wire.0.14.17.1.rotate 1
wire.0.15.24.1.rotate 1
wire.0.16.14.1.rotate 1
wire.0.17.7.1.rotate 1
wire.0.18.23.1.rotate 1
wire.0.19.19.1.rotate 1
wire.0.20.2.1.rotate 1
wire.0.21.22.1.rotate 1
wire.0.22.3.1.rotate 1
wire.0.23.11.1.rotate 1
wire.0.24.1.1.rotate 1
wire.0.25.10.1.rotate 1
wire.1.0.24.1.rotate 1
wire.1.1.22.1.rotate 1
wire.1.2.20.1.rotate 1
wire.1.3.18.1.rotate 1
wire.1.4.5.1.rotate 1
wire.1.5.7.1.rotate 1
wire.1.6.9.1.rotate 1
wire.1.7.11.1.rotate 1
wire.1.8.13.1.rotate 1
wire.1.9.15.1.rotate 1
wire.1.10.6.1.rotate 1
wire.1.11.19.1.rotate 1
wire.1.12.21.1.rotate 1
wire.1.13.23.1.rotate 1
wire.1.14.1.1.rotate 1
wire.1.15.25.1.rotate 1
wire.1.16.3.1.rotate 1
wire.1.17.17.1.rotate 1
wire.1.18.2.1.rotate 1
wire.1.19.8.1.rotate 1
wire.1.20.12.1.rotate 1
wire.1.21.0.1.rotate 1
wire.1.22.10.1.rotate 1
wire.1.23.4.1.rotate 1
wire.1.24.14.1.rotate 1
wire.1.25.16.1.rotate 1
wire.2.0.9.1.rotate 1
wire.2.1.14.1.rotate 1
wire.2.2.18.1.rotate 1
wire.2.3.6.1.rotate 1
wire.2.4.12.1.rotate 1
wire.2.5.7.1.rotate 1
wire.2.6.15.1.rotate 1
wire.2.7.17.1.rotate 1
wire.2.8.0.1.rotate 1
wire.2.9.16.1.rotate 1
wire.2.10.13.1.rotate 1
wire.2.11.11.1.rotate 1
wire.2.12.8.1.rotate 1
wire.2.13.19.1.rotate 1
wire.2.14.1.1.rotate 1
wire.2.15.20.1.rotate 1
wire.2.16.10.1.rotate 1
wire.2.17.21.1.rotate 1
wire.2.18.2.1.rotate 1
wire.2.19.23.1.rotate 1
wire.2.20.3.1.rotate 1
wire.2.21.5.1.rotate 1
wire.2.22.24.1.rotate 1
wire.2.23.4.1.rotate 1
wire.2.24.25.1.rotate 1
wire.2.25.22.1.rotate 1
wire.0.0.13.1 1
wire.0.1.16.1 1
wire.0.2.20.1 1
wire.0.3.4.1 1
wire.0.4.0.1 1
wire.0.5.15.1 1
wire.0.6.12.1 1
wire.0.7.5.1 1
wire.0.8.21.1 1
wire.0.9.9.1 1
wire.0.10.25.1 1
wire.0.11.18.1 1
wire.0.12.6.1 1
wire.0.13.8.1 1
wire.0.14.17.1 1
wire.0.15.24.1 1
wire.0.16.14.1 1
wire.0.17.7.1 1
wire.0.18.23.1 1
wire.0.19.19.1 1
wire.0.20.2.1 1
wire.0.21.22.1 1
wire.0.22.3.1 1
wire.0.23.11.1 1
wire.0.24.1.1 1
wire.0.25.10.1 1
wire.1.0.24.1 1
wire.1.1.22.1 1
wire.1.2.20.1 1
wire.1.3.18.1 1
wire.1.4.5.1 1
wire.1.5.7.1 1
wire.1.6.9.1 1
wire.1.7.11.1 1
wire.1.8.13.1 1
wire.1.9.15.1 1
wire.1.10.6.1 1
wire.1.11.19.1 1
wire.1.12.21.1 1
wire.1.13.23.1 1
wire.1.14.1.1 1
wire.1.15.25.1 1
wire.1.16.3.1 1
wire.1.17.17.1 1
wire.1.18.2.1 1
wire.1.19.8.1 1
wire.1.20.12.1 1
wire.1.21.0.1 1
wire.1.22.10.1 1
wire.1.23.4.1 1
wire.1.24.14.1 1
wire.1.25.16.1 1
wire.2.0.9.1 1
wire.2.1.14.1 1
wire.2.2.18.1 1
wire.2.3.6.1 1
wire.2.4.12.1 1
wire.2.5.7.1 1
wire.2.6.15.1 1
wire.2.7.17.1 1
wire.2.8.0.1 1
wire.2.9.16.1 1
wire.2.10.13.1 1
wire.2.11.11.1 1
wire.2.12.8.1 1
wire.2.13.19.1 1
wire.2.14.1.1 1
wire.2.15.20.1 1
wire.2.16.10.1 1
wire.2.17.21.1 1
wire.2.18.2.1 1
wire.2.19.23.1 1
wire.2.20.3.1 1
wire.2.21.5.1 1
wire.2.22.24.1 1
wire.2.23.4.1 1
wire.2.24.25.1 1
wire.2.25.22.1 1
elec.0.11.0.0 1
elec.0.19.24.0 1
elec.1.4.19.0 1
elec.1.23.11.0 1
elec.2.0.23.0 1
elec.2.21.4.0 1
elec.0.4.0.1 1
elec.0.15.24.1 1
elec.1.9.15.1 1
elec.1.23.4.1 1
elec.2.0.9.1 1
elec.2.19.23.1 1
elec.s.0.0.0 1
elec.u.0.24.0 1
elec.s.21.21.0 1
elec.u.24.0.0 1
elec.s.0.0.1 1
elec.u.0.24.1 1
elec.s.19.19.1 1
elec.u.24.0.1 1
ciphertext.21.0 1
ciphertext.19.1 1
